Set parameter TokenServer to value "hpc-licenses.hpcc.usc.edu"
Set parameter TimeLimit to value 3600
Gurobi Optimizer version 9.5.1 build v9.5.1rc2 (linux64)
Thread count: 20 physical cores, 20 logical processors, using up to 20 threads
Optimize a model with 14014 rows, 10581 columns and 61098 nonzeros
Model fingerprint: 0xce33a33c
Variable types: 10514 continuous, 67 integer (67 binary)
Coefficient statistics:
  Matrix range     [1e+00, 1e+00]
  Objective range  [8e-04, 1e+00]
  Bounds range     [1e+00, 1e+00]
  RHS range        [1e+00, 1e+00]
Presolve removed 3086 rows and 3065 columns
Presolve time: 0.20s
Presolved: 10928 rows, 7516 columns, 56261 nonzeros
Variable types: 7456 continuous, 60 integer (60 binary)
Found heuristic solution: objective 274.4056773
Found heuristic solution: objective 276.4040270
Found heuristic solution: objective 277.0364005

Root relaxation: objective 2.818975e+02, 3179 iterations, 0.16 seconds (0.24 work units)

    Nodes    |    Current Node    |     Objective Bounds      |     Work
 Expl Unexpl |  Obj  Depth IntInf | Incumbent    BestBd   Gap | It/Node Time

     0     0  281.89747    0    4  277.03640  281.89747  1.75%     -    0s
     0     0  281.89747    0    6  277.03640  281.89747  1.75%     -    0s
     0     0  281.89747    0    6  277.03640  281.89747  1.75%     -    0s
     0     0  281.89747    0    6  277.03640  281.89747  1.75%     -    1s
     0     0  281.89747    0    9  277.03640  281.89747  1.75%     -    1s
     0     0  281.89747    0    8  277.03640  281.89747  1.75%     -    1s
     0     0  281.89747    0    8  277.03640  281.89747  1.75%     -    1s
     0     0  281.89747    0    8  277.03640  281.89747  1.75%     -    1s
     0     2  281.89747    0    8  277.03640  281.89747  1.75%     -    1s
*   14    14               4     278.4463385  281.89747  1.24%   506    4s
    23    22  281.87309    5    7  278.44634  281.89747  1.24%   586    5s
H   45    27                     278.5701270  281.88494  1.19%   469    6s
*   67    31               6     279.1309751  281.81291  0.96%   382    6s
*   99    27               9     279.5003410  281.74886  0.80%   337    7s
*  183    26              10     279.5525969  281.53554  0.71%   273    8s
*  204    31              12     279.5832531  281.53554  0.70%   259    9s
H  215    33                     280.0791295  281.53132  0.52%   254   11s
*  291    20              15     280.1317960  281.19293  0.38%   243   12s
*  408    13              26     280.2019741  280.97520  0.28%   230   14s
   411     4     cutoff   11       280.20197  280.97520  0.28%   230   15s

Cutting planes:
  Gomory: 1
  MIR: 3
  RLT: 5

Explored 446 nodes (109101 simplex iterations) in 16.56 seconds (4.82 work units)
Thread count was 20 (of 20 available processors)

Solution count 10: 280.202 280.132 280.079 ... 277.036

Optimal solution found (tolerance 1.00e-04)
Best objective 2.802019741396e+02, best bound 2.802019741396e+02, gap 0.0000%



#########node  1
V2.7
#########node  2
V1.5
#########node  3
V1.2
#########node  4
0.0,1.0
#########node  5
1.0000000000000002,4.930380657631324e-32
#########node  6
2.220446049250313e-16,0.9999999999999997
#########node  7
1.0,0.0


Total Solving Time 17.461166381835938
obj value 280.2019741396233
Policy Regret train (Sum) 1.172996497033545
Best Treatment Found train (%) 87.4
treatment classification acc train (%) 49.0
Policy Regret test (Sum) 67.90574040222246
Best Treatment Found test (%) 71.7
treatment classification acc test (%) 49.93
Set parameter TokenServer to value "hpc-licenses.hpcc.usc.edu"
Set parameter TimeLimit to value 3600
Gurobi Optimizer version 9.5.1 build v9.5.1rc2 (linux64)
Thread count: 20 physical cores, 20 logical processors, using up to 20 threads
Optimize a model with 14014 rows, 10581 columns and 61098 nonzeros
Model fingerprint: 0xce33a33c
Variable types: 10514 continuous, 67 integer (67 binary)
Coefficient statistics:
  Matrix range     [1e+00, 1e+00]
  Objective range  [8e-04, 1e+00]
  Bounds range     [1e+00, 1e+00]
  RHS range        [1e+00, 1e+00]
Presolve removed 3086 rows and 3065 columns
Presolve time: 0.26s
Presolved: 10928 rows, 7516 columns, 56261 nonzeros
Variable types: 7456 continuous, 60 integer (60 binary)
Found heuristic solution: objective 274.4056773
Found heuristic solution: objective 276.4040270
Found heuristic solution: objective 277.0364005

Root relaxation: objective 2.818975e+02, 3179 iterations, 0.16 seconds (0.24 work units)

    Nodes    |    Current Node    |     Objective Bounds      |     Work
 Expl Unexpl |  Obj  Depth IntInf | Incumbent    BestBd   Gap | It/Node Time

     0     0  281.89747    0    4  277.03640  281.89747  1.75%     -    0s
     0     0  281.89747    0    6  277.03640  281.89747  1.75%     -    0s
     0     0  281.89747    0    6  277.03640  281.89747  1.75%     -    1s
     0     0  281.89747    0    6  277.03640  281.89747  1.75%     -    1s
     0     0  281.89747    0    9  277.03640  281.89747  1.75%     -    1s
     0     0  281.89747    0    8  277.03640  281.89747  1.75%     -    1s
     0     0  281.89747    0    8  277.03640  281.89747  1.75%     -    1s
     0     0  281.89747    0    8  277.03640  281.89747  1.75%     -    1s
     0     2  281.89747    0    8  277.03640  281.89747  1.75%     -    1s
*   14    14               4     278.4463385  281.89747  1.24%   506    3s
    37    27  281.81291    6    7  278.44634  281.88494  1.23%   513    5s
H   45    27                     278.5701270  281.88494  1.19%   469    5s
*   67    31               6     279.1309751  281.81291  0.96%   382    5s
*   99    27               9     279.5003410  281.74886  0.80%   337    6s
*  183    26              10     279.5525969  281.53554  0.71%   273    7s
*  204    31              12     279.5832531  281.53554  0.70%   259    8s
H  215    33                     280.0791295  281.53132  0.52%   254   10s
*  291    20              15     280.1317960  281.19293  0.38%   243   11s
*  408    13              26     280.2019741  280.97520  0.28%   230   14s
   411     4     cutoff   11       280.20197  280.97520  0.28%   230   15s

Cutting planes:
  Gomory: 1
  MIR: 3
  RLT: 5

Explored 446 nodes (109101 simplex iterations) in 16.44 seconds (4.82 work units)
Thread count was 20 (of 20 available processors)

Solution count 10: 280.202 280.132 280.079 ... 277.036

Optimal solution found (tolerance 1.00e-04)
Best objective 2.802019741396e+02, best bound 2.802019741396e+02, gap 0.0000%



#########node  1
V2.7
#########node  2
V1.5
#########node  3
V1.2
#########node  4
0.0,1.0
#########node  5
1.0000000000000002,4.930380657631324e-32
#########node  6
2.220446049250313e-16,0.9999999999999997
#########node  7
1.0,0.0


Total Solving Time 17.296088933944702
obj value 280.2019741396233
Policy Regret train (Sum) 1.172996497033545
Best Treatment Found train (%) 87.4
treatment classification acc train (%) 49.0
Policy Regret test (Sum) 67.90574040222246
Best Treatment Found test (%) 71.7
treatment classification acc test (%) 49.93
